184 5
10 10 10 10 10 

0 0 0 0 0 0 1 2 
0 0 0 0 0 0 4 3 4 11 12 
1 0 5 0 0 0 4 10 9 8 5 
7 0 5 0 0 0 2 7 5 
1 0 8 0 0 0 1 6 
4 0 10 0 0 0 1 13 
8 0 9 0 0 0 1 13 
2 0 10 0 0 0 1 13 
6 0 8 0 0 0 1 13 
8 0 5 0 0 0 1 13 
7 0 8 0 0 0 1 13 
8 0 7 0 0 0 1 13 
0 0 0 0 0 0 1 14 
0 0 0 0 0 0 5 15 16 18 19 24 
4 0 0 2 0 0 3 23 20 17 
4 0 0 5 0 0 2 22 20 
10 0 0 10 0 0 1 21 
8 0 0 7 0 0 1 21 
10 0 0 10 0 0 1 20 
6 0 0 7 0 0 1 25 
8 0 0 10 0 0 1 25 
6 0 0 10 0 0 1 25 
7 0 0 6 0 0 1 25 
5 0 0 8 0 0 1 25 
0 0 0 0 0 0 3 26 38 50 
0 0 0 0 0 0 5 27 28 30 33 36 
3 0 4 0 0 0 3 32 31 29 
6 0 9 0 0 0 2 31 29 
8 0 10 0 0 0 3 35 34 46 
8 0 7 0 0 0 1 31 
9 0 4 0 0 0 1 35 
5 0 8 0 0 0 1 34 
4 0 8 0 0 0 1 34 
6 0 9 0 0 0 1 37 
4 0 7 0 0 0 1 37 
4 0 9 0 0 0 1 37 
0 0 0 0 0 0 1 62 
0 0 0 0 0 0 4 39 40 41 48 
9 0 0 5 0 0 3 47 45 42 
8 0 0 9 0 0 3 45 44 43 
8 0 0 5 0 0 2 46 44 
6 0 0 4 0 0 1 43 
5 0 0 7 0 0 1 49 
8 0 0 5 0 0 1 49 
10 0 0 10 0 0 2 49 133 
5 0 0 10 0 0 1 49 
5 0 0 10 0 0 1 49 
1 0 0 10 0 0 1 49 
0 0 0 0 0 0 1 62 
0 0 0 0 0 0 6 51 52 54 55 56 165 
2 0 0 1 0 0 4 60 59 58 57 
9 0 0 9 0 0 2 59 53 
10 0 0 9 0 0 2 58 57 
2 0 0 10 0 0 2 60 58 
4 0 0 9 0 0 2 59 57 
10 0 0 9 0 0 2 58 57 
7 0 0 5 0 0 1 61 
4 0 0 6 0 0 1 61 
2 0 0 7 0 0 1 61 
10 0 0 10 0 0 1 61 
0 0 0 0 0 0 1 62 
0 0 0 0 0 0 5 63 75 87 99 111 
0 0 0 0 0 0 3 64 65 68 
3 0 0 0 0 6 5 73 72 71 70 66 
9 0 0 0 0 5 3 71 67 66 
1 0 0 0 0 9 1 69 
4 0 0 0 0 8 1 70 
8 0 0 0 0 7 1 69 
3 0 0 0 0 5 1 74 
3 0 0 0 0 10 2 74 164 
10 0 0 0 0 7 1 74 
7 0 0 0 0 8 1 74 
9 0 0 0 0 10 1 74 
0 0 0 0 0 0 1 123 
0 0 0 0 0 0 4 76 77 84 85 
10 0 0 3 0 0 4 83 82 80 78 
9 0 0 3 0 0 3 81 80 78 
4 0 0 9 0 0 1 79 
7 0 0 7 0 0 1 86 
9 0 0 8 0 0 1 86 
1 0 0 7 0 0 2 86 170 
6 0 0 9 0 0 1 86 
5 0 0 9 0 0 1 86 
8 0 0 10 0 0 1 86 
2 0 0 10 0 0 1 86 
0 0 0 0 0 0 1 123 
0 0 0 0 0 0 5 88 89 90 92 97 
7 0 0 0 0 2 3 96 94 93 
4 0 0 0 0 8 2 94 93 
8 0 0 0 0 7 2 91 176 
6 0 0 0 0 8 1 95 
7 0 0 0 0 9 1 93 
2 0 0 0 0 6 1 98 
2 0 0 0 0 9 1 98 
1 0 0 0 0 7 1 98 
5 0 0 0 0 9 1 98 
8 0 0 0 0 10 1 98 
0 0 0 0 0 0 1 123 
0 0 0 0 0 0 5 100 101 102 103 105 
9 0 0 2 0 0 4 109 108 107 106 
3 0 0 8 0 0 2 109 104 
8 0 0 5 0 0 3 109 108 106 
1 0 0 10 0 0 1 104 
1 0 0 6 0 0 2 107 106 
8 0 0 10 0 0 1 108 
2 0 0 6 0 0 1 110 
2 0 0 9 0 0 1 110 
10 0 0 9 0 0 1 110 
5 0 0 10 0 0 1 110 
0 0 0 0 0 0 1 123 
0 0 0 0 0 0 5 112 113 116 120 121 
6 0 0 3 0 0 2 118 114 
5 0 0 5 0 0 2 118 115 
4 0 0 8 0 0 1 119 
4 0 0 9 0 0 1 117 
10 0 0 10 0 0 1 117 
9 0 0 7 0 0 1 122 
7 0 0 10 0 0 1 122 
10 0 0 10 0 0 1 122 
6 0 0 9 0 0 1 122 
7 0 0 4 0 0 1 122 
0 0 0 0 0 0 1 123 
0 0 0 0 0 0 5 124 136 148 160 172 
0 0 0 0 0 0 7 125 126 128 129 130 133 134 
8 0 0 0 3 0 2 132 127 
3 0 0 0 10 0 1 127 
6 0 0 0 8 0 1 131 
3 0 0 0 9 0 1 132 
7 0 0 0 5 0 1 131 
6 0 0 0 6 0 1 131 
7 0 0 0 9 0 1 135 
1 0 0 0 10 0 1 135 
6 0 0 0 7 0 1 135 
5 0 0 0 8 0 1 135 
0 0 0 0 0 0 1 184 
0 0 0 0 0 0 4 137 138 140 142 
8 0 4 0 0 0 2 146 141 
6 0 5 0 0 0 1 139 
6 0 10 0 0 0 4 146 145 144 143 
3 0 9 0 0 0 1 141 
2 0 7 0 0 0 3 145 144 143 
7 0 8 0 0 0 3 146 144 143 
8 0 9 0 0 0 1 147 
10 0 8 0 0 0 1 147 
1 0 5 0 0 0 1 147 
4 0 10 0 0 0 1 147 
0 0 0 0 0 0 1 184 
0 0 0 0 0 0 6 149 152 153 154 155 156 
7 0 0 4 0 0 2 151 150 
3 0 0 7 0 0 2 158 157 
9 0 0 7 0 0 2 158 157 
2 0 0 10 0 0 2 158 157 
6 0 0 4 0 0 2 158 157 
8 0 0 10 0 0 1 157 
1 0 0 8 0 0 1 157 
5 0 0 8 0 0 1 157 
4 0 0 10 0 0 1 159 
7 0 0 7 0 0 1 159 
0 0 0 0 0 0 1 184 
0 0 0 0 0 0 4 161 163 164 170 
8 0 0 0 0 6 2 169 162 
5 0 0 0 0 3 3 168 166 165 
1 0 0 0 0 10 3 167 166 165 
9 0 0 0 0 7 2 167 165 
4 0 0 0 0 9 1 171 
3 0 0 0 0 9 1 171 
10 0 0 0 0 9 1 171 
5 0 0 0 0 5 1 171 
4 0 0 0 0 10 1 171 
7 0 0 0 0 7 1 171 
0 0 0 0 0 0 1 184 
0 0 0 0 0 0 5 173 175 176 177 182 
1 0 0 0 0 3 1 174 
1 0 0 0 0 9 3 181 180 178 
6 0 0 0 0 7 1 179 
5 0 0 0 0 9 1 179 
5 0 0 0 0 10 1 178 
7 0 0 0 0 10 1 183 
9 0 0 0 0 9 1 183 
6 0 0 0 0 7 1 183 
8 0 0 0 0 5 1 183 
6 0 0 0 0 6 1 183 
0 0 0 0 0 0 1 184 
0 0 0 0 0 0 0 
